(set-logic QF_LIA)
(set-info :ran/ran2.smt2)
(set-info :smt-lib-version 2.0)
(declare-fun x1 () Int)
(declare-fun x2 () Int)
(declare-fun x3 () Int)
(declare-fun x4 () Int)
(declare-fun x5 () Int)
(declare-fun x6 () Int)
(assert (<= (+ (* 1 x1) (* 8 x2) (* 3 x3) (* (- 3) x4) (* 3 x5) (* (- 1) x6) ) 6977))
(assert (<= (+ (* 1 x1) (* 7 x2) (* 0 x3) (* (- 4) x4) (* 0 x5) (* (- 4) x6) ) (- 2193)))
(assert (<= (+ (* 8 x1) (* (- 8) x2) (* (- 3) x3) (* (- 5) x4) (* 4 x5) (* 0 x6) ) (- 6980)))
(assert (<= (+ (* (- 2) x1) (* 4 x2) (* 6 x3) (* (- 3) x4) (* (- 5) x5) (* (- 5) x6) ) (- 6833)))
(assert (<= (+ (* (- 4) x1) (* 6 x2) (* 2 x3) (* 5 x4) (* 1 x5) (* (- 6) x6) ) (- 7514)))
(assert (<= (+ (* (- 8) x1) (* 3 x2) (* 5 x3) (* 3 x4) (* (- 3) x5) (* (- 6) x6) ) (- 2805)))
(assert (<= (+ (* 8 x1) (* 1 x2) (* (- 5) x3) (* 3 x4) (* 3 x5) (* 2 x6) ) (- 4966)))
(assert (<= (+ (* (- 6) x1) (* 10 x2) (* 0 x3) (* 0 x4) (* 3 x5) (* (- 7) x6) ) (- 4588)))
(assert (<= (+ (* 8 x1) (* (- 4) x2) (* (- 4) x3) (* (- 8) x4) (* (- 9) x5) (* 6 x6) ) (- 8003)))
(assert (<= (+ (* 2 x1) (* 8 x2) (* 5 x3) (* 2 x4) (* (- 2) x5) (* (- 1) x6) ) 6643))
(assert (<= (+ (* 6 x1) (* 1 x2) (* 9 x3) (* 1 x4) (* 10 x5) (* (- 7) x6) ) 5586))
(assert (<= (+ (* 2 x1) (* 4 x2) (* 8 x3) (* 4 x4) (* 3 x5) (* (- 3) x6) ) (- 7716)))
(assert (<= (+ (* 1 x1) (* 0 x2) (* 0 x3) (* 0 x4) (* 0 x5) (* 0 x6) ) 8912))
(assert (<= (+ (* (- 1) x1) (* 0 x2) (* 0 x3) (* 0 x4) (* 0 x5) (* 0 x6) ) 8912))
(assert (<= (+ (* 0 x1) (* 1 x2) (* 0 x3) (* 0 x4) (* 0 x5) (* 0 x6) ) 8912))
(assert (<= (+ (* 0 x1) (* (- 1) x2) (* 0 x3) (* 0 x4) (* 0 x5) (* 0 x6) ) 8912))
(assert (<= (+ (* 0 x1) (* 0 x2) (* 1 x3) (* 0 x4) (* 0 x5) (* 0 x6) ) 8912))
(assert (<= (+ (* 0 x1) (* 0 x2) (* (- 1) x3) (* 0 x4) (* 0 x5) (* 0 x6) ) 8912))
(assert (<= (+ (* 0 x1) (* 0 x2) (* 0 x3) (* 1 x4) (* 0 x5) (* 0 x6) ) 8912))
(assert (<= (+ (* 0 x1) (* 0 x2) (* 0 x3) (* (- 1) x4) (* 0 x5) (* 0 x6) ) 8912))
(assert (<= (+ (* 0 x1) (* 0 x2) (* 0 x3) (* 0 x4) (* 1 x5) (* 0 x6) ) 8912))
(assert (<= (+ (* 0 x1) (* 0 x2) (* 0 x3) (* 0 x4) (* (- 1) x5) (* 0 x6) ) 8912))
(assert (<= (+ (* 0 x1) (* 0 x2) (* 0 x3) (* 0 x4) (* 0 x5) (* 1 x6) ) 8912))
(assert (<= (+ (* 0 x1) (* 0 x2) (* 0 x3) (* 0 x4) (* 0 x5) (* (- 1) x6) ) 8912))
